graph_generation/data/sat/tcsp/hexagonal_lattice_N_7_task_along_shortest_path.txt
126 142 1 126 3
1 2 8
1 16 15
2 3 11
3 18 16
4 5 9
5 6 18
5 20 14
7 8 14
7 22 16
8 9 14
9 10 3
9 24 11
10 11 18
11 12 7
11 26 5
12 13 3
13 14 12
13 28 15
14 15 2
15 30 18
17 18 7
17 33 12
19 20 2
19 35 7
20 21 16
21 22 3
22 23 8
23 24 7
24 25 1
25 41 11
27 28 14
27 43 17
29 30 11
29 45 18
30 31 1
31 47 12
32 48 11
33 34 1
34 35 8
34 50 18
36 37 17
36 52 9
37 38 10
38 39 18
38 54 3
39 40 6
40 41 16
40 56 17
42 43 6
44 45 14
44 60 14
45 46 15
46 47 16
48 49 1
49 50 6
49 65 16
50 51 12
51 52 4
52 53 9
53 54 14
53 69 3
55 56 10
55 71 7
57 58 1
57 73 15
58 59 14
59 60 14
59 75 4
60 61 14
61 62 17
61 77 17
62 63 7
64 65 13
64 80 15
65 66 15
66 67 5
66 82 9
68 84 10
70 71 17
70 86 15
71 72 3
72 73 17
72 88 15
73 74 6
74 75 16
74 90 5
75 76 5
76 92 13
77 78 11
78 79 14
78 94 8
80 81 13
81 82 12
81 97 15
82 83 1
83 84 15
83 99 18
84 85 1
85 86 18
85 101 10
86 87 16
87 88 18
89 105 8
90 91 18
91 92 19
93 94 6
93 109 9
94 95 12
95 111 2
96 97 2
96 112 14
97 98 3
98 99 3
98 114 2
99 100 16
100 101 4
100 116 13
101 102 18
102 118 10
103 104 1
104 105 16
104 120 12
106 107 17
106 122 5
107 108 16
108 109 3
108 124 6
109 110 17
110 111 1
110 126 8
112 113 17
113 114 2
114 115 12
115 116 10
116 117 1
117 118 16
118 119 16
119 120 2
120 121 1
121 122 3
122 123 1
124 125 2
49
106
107
